Version identifier: 12.10.0.0 | 2019-11-26 | 843d4de
CPXPARAM_WorkMem                                 28672
Tried aggregator 2 times.
MIP Presolve eliminated 24 rows and 0 columns.
MIP Presolve added 48 rows and 0 columns.
Aggregator did 60 substitutions.
Reduced MIP has 126 rows, 110 columns, and 502 nonzeros.
Reduced MIP has 110 binaries, 0 generals, 0 SOSs, and 0 indicators.
Presolve time = 0,00 sec. (1,14 ticks)
Found incumbent of value 87,000000 after 0,00 sec. (1,29 ticks)
Probing time = 0,00 sec. (0,70 ticks)
Tried aggregator 1 time.
Detecting symmetries...
Reduced MIP has 126 rows, 110 columns, and 502 nonzeros.
Reduced MIP has 110 binaries, 0 generals, 0 SOSs, and 0 indicators.
Presolve time = 0,00 sec. (0,44 ticks)
Probing time = 0,00 sec. (0,69 ticks)
Clique table members: 411.
MIP emphasis: balance optimality and feasibility.
MIP search method: dynamic search.
Parallel mode: deterministic, using up to 16 threads.
Root relaxation solution time = 0,00 sec. (0,29 ticks)

        Nodes                                         Cuts/
   Node  Left     Objective  IInf  Best Integer    Best Bound    ItCnt     Gap

*     0+    0                           87,0000        0,0000           100,00%
*     0+    0                           84,0000        0,0000           100,00%
*     0+    0                           81,0000        0,0000           100,00%
      0     0       50,0000   110       81,0000       50,0000       46   38,27%
      0     0       51,2000   110       81,0000      Cuts: 49       65   36,79%
      0     0       53,0000   110       81,0000      Cuts: 67       91   34,57%
      0     0       53,0000   110       81,0000     Cuts: 107       93   34,57%
      0     0       53,0000   110       81,0000  ZeroHalf: 11      107   34,57%
      0     0        cutoff             81,0000       81,0000      107    0,00%
Elapsed time = 0,05 sec. (21,64 ticks, tree = 0,01 MB, solutions = 3)

Zero-half cuts applied:  8
Lift and project cuts applied:  1
Gomory fractional cuts applied:  31

Root node processing (before b&c):
  Real time             =    0,05 sec. (21,65 ticks)
Parallel b&c, 16 threads:
  Real time             =    0,00 sec. (0,00 ticks)
  Sync time (average)   =    0,00 sec.
  Wait time (average)   =    0,00 sec.
                          ------------
Total (root+branch&cut) =    0,05 sec. (21,65 ticks)
